# 58443
param k := 6;
param n := 60;
param s := 1;
set E :=  (0,32) (0,55) (1,9) (1,49) (2,9) (2,23) (2,28) (2,32) (3,50) (4,23) (4,30) (5,32) (6,34) (7,10) (7,48) (7,57) (8,22) (8,42) (8,59) (9,21) (9,24) (9,56) (10,19) (11,25) (11,29) (11,40) (12,31) (13,25) (13,56) (14,46) (15,37) (16,54) (17,34) (18,22) (18,27) (18,44) (19,24) (20,35) (21,25) (21,52) (26,40) (28,47) (28,50) (30,43) (30,51) (31,47) (31,57) (32,59) (33,45) (34,46) (34,54) (35,48) (36,45) (37,42) (38,45) (38,54) (39,44) (41,58) (43,58) (49,53) (54,56);